array [1..3] of int: X_INTRODUCED_31_ = [1,1,1];
array [1..3] of float: X_INTRODUCED_34_ = [-0.01,-0.008333333333333333,-0.006166666666666667];
array [1..3] of float: X_INTRODUCED_36_ = [0.005,0.0002083333333333333,0.0003333333333333333];
array [1..3] of float: X_INTRODUCED_38_ = [-0.008749999999999999,-0.00025,-0.001];
var int: X_INTRODUCED_0_;
var int: X_INTRODUCED_1_;
var int: X_INTRODUCED_2_;
var float: X_INTRODUCED_3_:: is_defined_var:: var_is_introduced;
var float: X_INTRODUCED_6_:: is_defined_var:: var_is_introduced;
var float: X_INTRODUCED_9_:: is_defined_var:: var_is_introduced;
var float: f:: is_defined_var;
array [1..3] of var int: cantidad_galones = [X_INTRODUCED_0_,X_INTRODUCED_1_,X_INTRODUCED_2_];
constraint int_lin_eq(X_INTRODUCED_31_,[X_INTRODUCED_0_,X_INTRODUCED_1_,X_INTRODUCED_2_],12000);
constraint float_lin_le(X_INTRODUCED_34_,[X_INTRODUCED_3_,X_INTRODUCED_6_,X_INTRODUCED_9_],-89.0);
constraint float_lin_le(X_INTRODUCED_36_,[X_INTRODUCED_3_,X_INTRODUCED_6_,X_INTRODUCED_9_],11.0);
constraint float_lin_le(X_INTRODUCED_38_,[X_INTRODUCED_3_,X_INTRODUCED_6_,X_INTRODUCED_9_],-17.0);
constraint int_le(0,X_INTRODUCED_0_);
constraint int_le(0,X_INTRODUCED_1_);
constraint int_le(0,X_INTRODUCED_2_);
constraint int2float(X_INTRODUCED_0_,X_INTRODUCED_3_):: defines_var(X_INTRODUCED_3_);
constraint int2float(X_INTRODUCED_1_,X_INTRODUCED_6_):: defines_var(X_INTRODUCED_6_);
constraint int2float(X_INTRODUCED_2_,X_INTRODUCED_9_):: defines_var(X_INTRODUCED_9_);
constraint float_lin_eq([0.58,1.55,0.85,-1.0],[X_INTRODUCED_3_,X_INTRODUCED_6_,X_INTRODUCED_9_,f],-0.0):: defines_var(f);
solve  satisfy;
